c WARNING: for repeatability, setting FPU to use double precision
d VARIABLES            26816        
d CONSTRAINTS          98129        
c ============================[ Problem Statistics ]=============================
c |                                                                             |
c |  Number of variables:         26816                                         |
c |  Number of clauses:           98129                                         |
c |  Parse time:                   0.02 s                                       |
c |                                                                             |
c ============================[ Search Statistics ]==============================
c | Conflicts |          ORIGINAL         |          LEARNT          | Progress |
c |           |    Vars  Clauses Literals |    Limit  Clauses Lit/Cl |          |
c ===============================================================================
c |       100 |   17231    73499   181195 |    26949      100     43 | 35.744 % |
c |       250 |   17231    73499   181195 |    29644      250     45 | 35.744 % |
c |       475 |   17231    73499   181195 |    32609      475    105 | 35.744 % |
c |       812 |   17231    73499   181195 |    35869      812    107 | 35.744 % |
c |      1318 |   17231    73499   181195 |    39456     1318    111 | 35.744 % |
c |      2077 |   17231    73499   181195 |    43402     2077    103 | 35.744 % |
c |      3216 |   17231    73499   181195 |    47742     3216    106 | 35.744 % |
c |      4924 |   17231    73499   181195 |    52517     4924    113 | 35.744 % |
c |      7486 |   17231    73499   181195 |    57768     7486    128 | 35.744 % |
c |     11330 |   17227    73480   181149 |    63545    11329    126 | 35.759 % |
c |     17096 |   17227    73480   181149 |    69900    17095    136 | 35.759 % |
c |     25745 |   17227    73480   181149 |    76890    25744    143 | 35.759 % |
c |     38719 |   17227    73480   181149 |    84579    38718    147 | 35.759 % |
c |     58180 |   17227    73480   181149 |    93037    58179    152 | 35.759 % |
c |     87372 |   17227    73480   181149 |   102341    87371    151 | 35.759 % |
c |    131161 |   17227    73480   181149 |   112575    40261    125 | 35.759 % |
c |    196845 |   17227    73480   181149 |   123832   105945    139 | 35.759 % |
c |    295371 |   17227    73480   181149 |   136216    87584    127 | 35.759 % |
c |    443160 |   17227    73480   181149 |   149837   113284    134 | 35.759 % |
c |    664843 |   17227    73480   181149 |   164821    57828    116 | 35.759 % |
c |    997368 |   17227    73480   181149 |   181303    94055    159 | 35.759 % |
c |   1496156 |   17224    73466   181115 |   199434    94233    108 | 35.770 % |
c |   2244338 |   17224    73466   181115 |   219377    95468    160 | 35.770 % |
c |   3366612 |   17224    73466   181115 |   241315   190985     89 | 35.770 % |
c ===============================================================================
c restarts              : 7671
c conflicts             : 4285084        (2389 /sec)
c decisions             : 8223401        (0.00 % random) (4585 /sec)
c propagations          : 4338349674     (2418730 /sec)
c conflict literals     : 537164134      (32.93 % deleted)
d RESTARTS             7671
d FAILURES             4285084      
d NODES                8223401      
d BACKTRACKS           8223401      
d PROPAGATIONS         4338349674   
d NOGOODSIZE           125.36 
d MEMORY               288.00 
d TIME                 1793.65 

s UNKNOWN
